63
220
49
0 2
0 10
0 38
1 3
1 5
1 6
1 13
1 27
1 29
1 30
2 8
2 11
2 12
2 14
2 21
2 62
3 5
3 6
3 13
3 20
3 28
3 31
4 7
4 9
4 10
4 26
4 42
4 44
5 6
5 13
5 27
5 29
5 30
5 47
6 13
6 28
6 31
6 47
7 9
7 10
7 26
7 30
7 45
7 46
7 51
8 11
8 12
8 14
8 21
8 23
8 41
9 10
9 26
9 30
9 43
10 26
10 38
11 12
11 14
11 17
11 23
11 30
11 37
11 39
11 50
11 56
11 59
12 14
12 19
12 20
12 29
13 18
13 28
13 31
13 32
13 36
13 40
13 48
13 58
14 21
15 23
15 37
15 41
15 47
16 25
16 26
16 33
16 34
16 39
16 54
17 23
17 30
17 37
17 50
18 22
18 32
18 38
18 48
18 58
19 20
19 29
20 29
20 31
20 40
21 62
22 23
22 24
22 27
22 29
22 30
22 32
22 38
22 44
22 48
22 58
23 24
23 27
23 29
23 30
23 37
23 41
23 47
23 50
24 27
24 29
24 30
25 26
25 33
25 34
25 54
26 33
26 34
26 42
26 44
26 54
27 29
27 30
28 31
28 32
28 45
29 30
29 44
30 37
30 50
31 47
31 49
32 37
32 38
32 39
32 45
32 48
32 58
33 34
33 35
33 51
33 54
34 35
34 51
34 54
35 51
35 54
36 40
37 38
37 39
37 41
37 47
37 50
37 56
37 59
38 39
38 48
38 58
39 50
39 56
39 59
41 42
41 44
41 47
41 49
41 55
42 44
42 47
42 49
42 55
43 48
43 50
43 56
43 58
43 59
44 47
44 49
44 55
45 46
45 51
47 49
47 55
48 50
48 52
48 53
48 56
48 58
48 59
49 55
50 52
50 53
50 56
50 58
50 59
51 54
52 53
52 60
54 60
55 56
55 57
55 61
56 57
56 58
56 59
57 61
58 59
0
1
2 3
4
5
6 7
8 9
10 11
12
13
14
15
16
17
18
19
20 21
22 23
24
25
26 27
28 29
30 31
32 33
34
35
36
37 38
39
40
41
42
43 44
45
46
47 48
49 50
51
52
53
54
55
56
57
58
59
60
61
62
